PARAMETER_FILE = even/even_complete_graph_new/par/random41.par
PROBLEM_FILE = even/even_complete_graph_new/mat/random41.tsp
Successes/Runs = 0/10
Cost.min = 496, Cost.avg = 496.00, Cost.max = 496
Gap.min = 0.0000%, Gap.avg = 0.0000%, Gap.max = 0.0000%
Trials.min = 1000, Trials.avg = 1000.0, Trials.max = 1000
Time.min = 0.02 sec., Time.avg = 0.02 sec., Time.max = 0.03 sec.
Time.total = 0.26 sec.
请按任意键继续. . . 
